175
0 6 73 81 93 89 159 155 133 5 
117 125 119 162 100 31 135 53 3 44 
104 90 21 23 134 54 116 137 124 102 
105 169 154 110 58 151 61 15 18 129 
77 79 12 88 25 87 148 121 109 140 
107 40 26 65 30 115 24 92 156 8 
68 60 126 103 122 62 50 1 106 118 
56 32 48 70 9 57 150 112 171 20 
174 7 94 39 46 27 136 63 91 72 
168 69 80 132 173 33 16 42 123 114 
149 138 71 66 142 95 49 2 170 96 
38 75 34 43 74 108 143 120 37 147 
78 29 113 14 160 141 167 163 82 153 
28 127 172 99 158 10 130 145 45 17 
128 101 36 98 131 139 13 144 146 76 
64 52 55 22 59 35 67 164 83 84 
111 85 157 166 152 47 97 41 4 51 
86 161 19 11 165 
